(set-logic QF_RDL)
(declare-fun x0 () Real)
(declare-fun x1 () Real)
(declare-fun x2 () Real)
(declare-fun x3 () Real)
(declare-fun x4 () Real)
(declare-fun x5 () Real)
(assert (let ((.def_0 (< (/ 3602879701896397 18014398509481984) x5))) (let ((.def_1 (< (/ 3602879701896397 18014398509481984) x4))) (let ((.def_2 (< (/ 3602879701896397 18014398509481984) x3))) (let ((.def_3 (< (/ 3602879701896397 18014398509481984) x2))) (let ((.def_4 (< (/ 3602879701896397 18014398509481984) x1))) (let ((.def_5 (< (/ 3602879701896397 18014398509481984) x0))) (let ((.def_6 (and .def_5 .def_4 .def_3 .def_2 .def_1 .def_0))) .def_6))))))))
(check-sat)
